10
0 115 15 128 667 618 30 192 899 11
115 0 70 545 14 717 248 255 68 634
15 70 0 8 4 439 123 17 245 197
128 545 8 0 101 280 25 114 348 383
667 14 4 101 0 515 711 139 859 69
618 717 439 280 515 0 76 305 342 300
30 248 123 25 711 76 0 96 65 636
192 255 17 114 139 305 96 0 247 466
899 68 245 348 859 342 65 247 0 369
11 634 197 383 69 300 636 466 369 0